id: 1003
name: 30_70_45_095_100
group: miplib2010
method: 1

Gurobi 7.0.2 (linux64, Matlab) logging started Thu Apr 19 15:58:25 2018


Gurobi 7.0.2 (linux64) logging started Thu Apr 19 15:58:25 2018

Optimize a model with 12526 rows, 10976 columns and 46640 nonzeros
Coefficient statistics:
  Matrix range     [1e+00, 1e+00]
  Objective range  [1e+00, 6e+03]
  Bounds range     [1e+00, 1e+00]
  RHS range        [1e+00, 3e+00]
Presolve removed 12 rows and 10 columns
Presolve time: 0.02s
Presolved: 12514 rows, 10966 columns, 46616 nonzeros

Iteration    Objective       Primal Inf.    Dual Inf.      Time
       0   -6.1340000e+03   6.147000e+03   0.000000e+00      0s
   11786    3.0000000e+00   0.000000e+00   0.000000e+00      1s

Solved in 11786 iterations and 1.37 seconds
Optimal objective  3.000000000e+00
status: OPTIMAL
